c
c Renamed file of cm85a.cnf 
c Variables are renamed according to left2right.ord 
c
c Date: Thu Apr 29 14:49:14 PDT 2004 by (jinbo)
c Host: Linux solution 2.4.18-4smp #1 SMP Thu May 2 18:32:34 EDT 2002 i686 unknown
c
c Copyright (c) 2001 Fadi A. Aloul.
c
p cnf 77 176
-34 -20 0
20 34 0
-20 18 0
-15 -16 0
-11 -16 0
16 15 11 0
-16 18 0
-18 20 16 0
-15 -12 0
-8 -12 0
12 15 8 0
-12 13 0
-13 12 0
-32 -19 0
19 32 0
-19 17 0
-15 -14 0
-2 -14 0
14 15 2 0
-14 17 0
-17 19 14 0
-73 -70 0
72 -70 0
70 73 -72 0
-70 68 0
-68 70 0
-60 -61 0
-62 -61 0
61 60 62 0
-61 59 0
-68 -63 0
-62 -63 0
63 68 62 0
-63 59 0
-59 61 63 0
73 -71 0
-72 -71 0
71 -73 72 0
-71 69 0
-69 71 0
-60 -65 0
-66 -65 0
65 60 66 0
-65 64 0
-69 -67 0
-66 -67 0
67 69 66 0
-67 64 0
-64 65 67 0
72 -75 0
73 -75 0
75 -72 -73 0
-75 76 0
-72 -74 0
-73 -74 0
74 72 73 0
-74 76 0
-76 75 74 0
-45 -47 0
47 45 0
-47 49 0
46 -48 0
48 -46 0
-48 49 0
-49 47 48 0
45 -52 0
52 -45 0
-52 53 0
-46 -51 0
51 46 0
-51 53 0
-53 52 51 0
-60 -58 0
58 60 0
-58 55 0
-76 -77 0
77 76 0
-77 55 0
-55 58 77 0
-46 -43 0
45 -43 0
43 46 -45 0
-43 42 0
46 -44 0
-45 -44 0
44 -46 45 0
-44 42 0
-42 43 44 0
-55 -41 0
-42 -41 0
41 55 42 0
-41 37 0
-37 41 0
-59 -56 0
56 59 0
-56 39 0
-53 -54 0
-55 -54 0
54 53 55 0
-54 39 0
-39 56 54 0
-64 -57 0
57 64 0
-57 40 0
-55 -50 0
-49 -50 0
50 55 49 0
-50 40 0
-40 57 50 0
-25 -27 0
26 -27 0
27 25 -26 0
-27 29 0
-29 27 0
-37 -36 0
-39 -36 0
36 37 39 0
-36 32 0
-29 -33 0
-39 -33 0
33 29 39 0
-33 32 0
-32 36 33 0
25 -28 0
-26 -28 0
28 -25 26 0
-28 30 0
-30 28 0
-37 -38 0
-40 -38 0
38 37 40 0
-38 34 0
-30 -35 0
-40 -35 0
35 30 40 0
-35 34 0
-34 38 35 0
26 -23 0
25 -23 0
23 -26 -25 0
-23 22 0
-26 -24 0
-25 -24 0
24 26 25 0
-24 22 0
-22 23 24 0
-4 -9 0
9 4 0
-9 11 0
5 -10 0
10 -5 0
-10 11 0
-11 9 10 0
4 -3 0
3 -4 0
-3 2 0
-5 -1 0
1 5 0
-1 2 0
-2 3 1 0
-37 -31 0
31 37 0
-31 15 0
-22 -21 0
21 22 0
-21 15 0
-15 31 21 0
-5 -7 0
4 -7 0
7 5 -4 0
-7 8 0
5 -6 0
-4 -6 0
6 -5 4 0
-6 8 0
-8 7 6 0
